c generated by sgen
p cnf 65 140
-2 -3 -4 0
-1 -3 -4 0
-1 -2 -4 0
-1 -2 -3 0
-6 -7 -8 0
-5 -7 -8 0
-5 -6 -8 0
-5 -6 -7 0
-10 -11 -12 0
-9 -11 -12 0
-9 -10 -12 0
-9 -10 -11 0
-14 -15 -16 0
-13 -15 -16 0
-13 -14 -16 0
-13 -14 -15 0
-18 -19 -20 0
-17 -19 -20 0
-17 -18 -20 0
-17 -18 -19 0
-22 -23 -24 0
-21 -23 -24 0
-21 -22 -24 0
-21 -22 -23 0
-26 -27 -28 0
-25 -27 -28 0
-25 -26 -28 0
-25 -26 -27 0
-30 -31 -32 0
-29 -31 -32 0
-29 -30 -32 0
-29 -30 -31 0
-34 -35 -36 0
-33 -35 -36 0
-33 -34 -36 0
-33 -34 -35 0
-38 -39 -40 0
-37 -39 -40 0
-37 -38 -40 0
-37 -38 -39 0
-42 -43 -44 0
-41 -43 -44 0
-41 -42 -44 0
-41 -42 -43 0
-46 -47 -48 0
-45 -47 -48 0
-45 -46 -48 0
-45 -46 -47 0
-50 -51 -52 0
-49 -51 -52 0
-49 -50 -52 0
-49 -50 -51 0
-54 -55 -56 0
-53 -55 -56 0
-53 -54 -56 0
-53 -54 -55 0
-58 -59 -60 0
-57 -59 -60 0
-57 -58 -60 0
-57 -58 -59 0
-61 -62 -63 0
-61 -62 -64 0
-61 -62 -65 0
-61 -63 -64 0
-61 -63 -65 0
-61 -64 -65 0
-62 -63 -64 0
-62 -63 -65 0
-62 -64 -65 0
-63 -64 -65 0
24 54 44 0
19 54 44 0
19 24 44 0
19 24 54 0
45 25 53 0
60 25 53 0
60 45 53 0
60 45 25 0
2 13 29 0
56 13 29 0
56 2 29 0
56 2 13 0
7 37 27 0
20 37 27 0
20 7 27 0
20 7 37 0
49 58 22 0
1 58 22 0
1 49 22 0
1 49 58 0
51 39 32 0
36 39 32 0
36 51 32 0
36 51 39 0
41 52 9 0
15 52 9 0
15 41 9 0
15 41 52 0
50 62 55 0
6 62 55 0
6 50 55 0
6 50 62 0
38 57 12 0
64 57 12 0
64 38 12 0
64 38 57 0
16 63 33 0
28 63 33 0
28 16 33 0
28 16 63 0
11 40 46 0
21 40 46 0
21 11 46 0
21 11 40 0
30 59 43 0
8 59 43 0
8 30 43 0
8 30 59 0
34 14 18 0
47 14 18 0
47 34 18 0
47 34 14 0
31 65 26 0
23 65 26 0
23 31 26 0
23 31 65 0
4 5 10 0
35 5 10 0
35 4 10 0
35 4 5 0
3 48 61 0
3 48 17 0
3 48 42 0
3 61 17 0
3 61 42 0
3 17 42 0
48 61 17 0
48 61 42 0
48 17 42 0
61 17 42 0
